Nodes = {"0", "1", "2", "3", "4", "5", "6"};
Arcs = {<"0","2",20,0>, <"2","0",20,0>, <"0","4",20,0>, <"4","0",20,0>, <"0","1",20,666>, <"1","0",20,666>, <"0","3",20,191>, <"3","0",20,191>, <"0","5",20,10>, <"5","0",20,10>, <"0","6",20,953>, <"6","0",20,953>, <"1","5",20,0>, <"5","1",20,0>, <"1","6",20,0>, <"6","1",20,0>, <"1","2",20,158>, <"2","1",20,158>, <"1","3",20,246>, <"3","1",20,246>, <"1","4",20,74>, <"4","1",20,74>, <"2","5",20,0>, <"5","2",20,0>, <"2","3",20,0>, <"3","2",20,0>, <"2","4",20,330>, <"4","2",20,330>, <"2","6",20,195>, <"6","2",20,195>, <"3","5",20,0>, <"5","3",20,0>, <"3","6",20,0>, <"6","3",20,0>, <"3","4",20,480>, <"4","3",20,480>, <"4","5",20,1301>, <"5","4",20,1301>, <"4","6",20,39>, <"6","4",20,39>, <"5","6",20,0>, <"6","5",20,0>};
Demands = {<"0","1",2,0>, <"0","2",4,0>, <"0","3",6,0>, <"0","4",8,0>, <"0","5",10,0>, <"0","6",12,0>, <"1","0",2,0>, <"1","2",2,0>, <"1","3",4,0>, <"1","4",6,0>, <"1","5",8,0>, <"1","6",10,0>, <"2","0",4,1>, <"2","1",2,0>, <"2","3",2,0>, <"2","4",4,0>, <"2","5",6,1>, <"2","6",8,0>, <"3","0",6,0>, <"3","1",4,0>, <"3","2",2,0>, <"3","4",2,0>, <"3","5",4,0>, <"3","6",6,0>, <"4","0",8,0>, <"4","1",6,0>, <"4","2",4,0>, <"4","3",2,0>, <"4","5",2,0>, <"4","6",4,1>, <"5","0",10,0>, <"5","1",8,0>, <"5","2",6,0>, <"5","3",4,0>, <"5","4",2,0>, <"5","6",2,0>, <"6","0",12,0>, <"6","1",10,0>, <"6","2",8,1>, <"6","3",6,0>, <"6","4",4,0>, <"6","5",2,0>, <"4","6",4,1>, <"6","2",8,1>, <"2","5",6,1>, <"2","0",4,1>};
